problems/csplib-prob056/sonet-models/noch/O2/lingeling/model_8_1-s3ring13-solution000001.solution
language Essence 1.3

letting network be mset({}, {}, {1, 2, 10}, {1, 3, 4, 9, 13}, {2, 4, 6, 8, 12}, {3, 9, 10, 11, 12}, {5, 6, 7, 9})
$ Here is a simple "visualisation" for the value above.
$ 
$ 
$  1  2 10
$  1  3  4  9 13
$  2  4  6  8 12
$  3  9 10 11 12
$  5  6  7  9

